letting initialStacks = [47, 20, 22, 33, 13, 45, 31, 29, 21, 15, 11, 40, 50, 39, 41, 38, 18, 27, 3, 32, 4, 46, 6, 10, 51, 17, 16, 8, 42, 44, 34, 1, 9, 49, 28, 48, 26, 35, 25, 37, 19, 14, 30, 7, 23, 36, 24, 5, 12, 43, 2]
